2025/nerd-castle-proof-logging-for-subgraphs/example.clq
p edge 12 0
e 1 2
e 1 5
e 1 8
e 1 10
e 1 11
e 1 12
e 2 5
e 2 8
e 2 10
e 3 4
e 3 6
e 3 10
e 3 11
e 4 6
e 5 8
e 6 7
e 6 12
e 7 9
e 7 11
e 7 12
e 8 9
e 9 10
e 9 11
e 9 12
e 10 11
