2025/nerd-castle-proof-logging-for-subgraphs/example.opb
min: 1 ~x1 1 ~x2 1 ~x3 1 ~x4 1 ~x5 1 ~x6 1 ~x7 1 ~x8 1 ~x9 1 ~x10 1 ~x11 1 ~x12 ;
@nonadj1_3 -1 x3 -1 x1 >= -1 ;
@nonadj2_3 -1 x3 -1 x2 >= -1 ;
@nonadj1_4 -1 x4 -1 x1 >= -1 ;
@nonadj2_4 -1 x4 -1 x2 >= -1 ;
@nonadj3_5 -1 x5 -1 x3 >= -1 ;
@nonadj4_5 -1 x5 -1 x4 >= -1 ;
@nonadj1_6 -1 x6 -1 x1 >= -1 ;
@nonadj2_6 -1 x6 -1 x2 >= -1 ;
@nonadj5_6 -1 x6 -1 x5 >= -1 ;
@nonadj1_7 -1 x7 -1 x1 >= -1 ;
@nonadj2_7 -1 x7 -1 x2 >= -1 ;
@nonadj3_7 -1 x7 -1 x3 >= -1 ;
@nonadj4_7 -1 x7 -1 x4 >= -1 ;
@nonadj5_7 -1 x7 -1 x5 >= -1 ;
@nonadj3_8 -1 x8 -1 x3 >= -1 ;
@nonadj4_8 -1 x8 -1 x4 >= -1 ;
@nonadj6_8 -1 x8 -1 x6 >= -1 ;
@nonadj7_8 -1 x8 -1 x7 >= -1 ;
@nonadj1_9 -1 x9 -1 x1 >= -1 ;
@nonadj2_9 -1 x9 -1 x2 >= -1 ;
@nonadj3_9 -1 x9 -1 x3 >= -1 ;
@nonadj4_9 -1 x9 -1 x4 >= -1 ;
@nonadj5_9 -1 x9 -1 x5 >= -1 ;
@nonadj6_9 -1 x9 -1 x6 >= -1 ;
@nonadj4_10 -1 x10 -1 x4 >= -1 ;
@nonadj5_10 -1 x10 -1 x5 >= -1 ;
@nonadj6_10 -1 x10 -1 x6 >= -1 ;
@nonadj7_10 -1 x10 -1 x7 >= -1 ;
@nonadj8_10 -1 x10 -1 x8 >= -1 ;
@nonadj2_11 -1 x11 -1 x2 >= -1 ;
@nonadj4_11 -1 x11 -1 x4 >= -1 ;
@nonadj5_11 -1 x11 -1 x5 >= -1 ;
@nonadj6_11 -1 x11 -1 x6 >= -1 ;
@nonadj8_11 -1 x11 -1 x8 >= -1 ;
@nonadj2_12 -1 x12 -1 x2 >= -1 ;
@nonadj3_12 -1 x12 -1 x3 >= -1 ;
@nonadj4_12 -1 x12 -1 x4 >= -1 ;
@nonadj5_12 -1 x12 -1 x5 >= -1 ;
@nonadj8_12 -1 x12 -1 x8 >= -1 ;
@nonadj10_12 -1 x12 -1 x10 >= -1 ;
@nonadj11_12 -1 x12 -1 x11 >= -1 ;
